p cnf 646 2192
c p weight -257 1 0
c p weight 257 -1 0
c p weight 261 6.12323399573676603586882014729198302312846062338790031898128063403419218957424163818359375E-17 0
c p weight -261 1 0
c p weight 262 1 0
c p weight -262 1 0
c p weight -259 1 0
c p weight 259 -1 0
c p weight -263 1 0
c p weight 263 -1 0
c p weight -265 1 0
c p weight 265 -1 0
c p weight -268 1 0
c p weight 268 -1 0
c p weight -271 1 0
c p weight 271 -1 0
c p weight -274 1 0
c p weight 274 -1 0
c p weight -277 1 0
c p weight 277 -1 0
c p weight -280 1 0
c p weight 280 -1 0
c p weight -283 1 0
c p weight 283 -1 0
c p weight -286 1 0
c p weight 286 -1 0
c p weight -289 1 0
c p weight 289 -1 0
c p weight -292 1 0
c p weight 292 -1 0
c p weight -295 1 0
c p weight 295 -1 0
c p weight -298 1 0
c p weight 298 -1 0
c p weight -301 1 0
c p weight 301 -1 0
c p weight -304 1 0
c p weight 304 -1 0
c p weight -307 1 0
c p weight 307 -1 0
c p weight -310 1 0
c p weight 310 -1 0
c p weight -313 1 0
c p weight 313 -1 0
c p weight -316 1 0
c p weight 316 -1 0
c p weight -319 1 0
c p weight 319 -1 0
c p weight -322 1 0
c p weight 322 -1 0
c p weight -325 1 0
c p weight 325 -1 0
c p weight -328 1 0
c p weight 328 -1 0
c p weight -331 1 0
c p weight 331 -1 0
c p weight -334 1 0
c p weight 334 -1 0
c p weight -337 1 0
c p weight 337 -1 0
c p weight -340 1 0
c p weight 340 -1 0
c p weight -343 1 0
c p weight 343 -1 0
c p weight -346 1 0
c p weight 346 -1 0
c p weight -349 1 0
c p weight 349 -1 0
c p weight -352 1 0
c p weight 352 -1 0
c p weight -355 1 0
c p weight 355 -1 0
c p weight -358 1 0
c p weight 358 -1 0
c p weight -361 1 0
c p weight 361 -1 0
c p weight -364 1 0
c p weight 364 -1 0
c p weight -367 1 0
c p weight 367 -1 0
c p weight -370 1 0
c p weight 370 -1 0
c p weight -373 1 0
c p weight 373 -1 0
c p weight -376 1 0
c p weight 376 -1 0
c p weight -379 1 0
c p weight 379 -1 0
c p weight -382 1 0
c p weight 382 -1 0
c p weight -385 1 0
c p weight 385 -1 0
c p weight -388 1 0
c p weight 388 -1 0
c p weight -391 1 0
c p weight 391 -1 0
c p weight -394 1 0
c p weight 394 -1 0
c p weight -397 1 0
c p weight 397 -1 0
c p weight -400 1 0
c p weight 400 -1 0
c p weight -403 1 0
c p weight 403 -1 0
c p weight -406 1 0
c p weight 406 -1 0
c p weight -409 1 0
c p weight 409 -1 0
c p weight -412 1 0
c p weight 412 -1 0
c p weight -415 1 0
c p weight 415 -1 0
c p weight -418 1 0
c p weight 418 -1 0
c p weight -421 1 0
c p weight 421 -1 0
c p weight -424 1 0
c p weight 424 -1 0
c p weight -427 1 0
c p weight 427 -1 0
c p weight -430 1 0
c p weight 430 -1 0
c p weight -433 1 0
c p weight 433 -1 0
c p weight -436 1 0
c p weight 436 -1 0
c p weight -439 1 0
c p weight 439 -1 0
c p weight -442 1 0
c p weight 442 -1 0
c p weight -445 1 0
c p weight 445 -1 0
c p weight -448 1 0
c p weight 448 -1 0
c p weight -451 1 0
c p weight 451 -1 0
c p weight -454 1 0
c p weight 454 -1 0
c p weight -457 1 0
c p weight 457 -1 0
c p weight -460 1 0
c p weight 460 -1 0
c p weight -463 1 0
c p weight 463 -1 0
c p weight -466 1 0
c p weight 466 -1 0
c p weight -469 1 0
c p weight 469 -1 0
c p weight -472 1 0
c p weight 472 -1 0
c p weight -475 1 0
c p weight 475 -1 0
c p weight -478 1 0
c p weight 478 -1 0
c p weight -481 1 0
c p weight 481 -1 0
c p weight -484 1 0
c p weight 484 -1 0
c p weight -487 1 0
c p weight 487 -1 0
c p weight -490 1 0
c p weight 490 -1 0
c p weight -493 1 0
c p weight 493 -1 0
c p weight -496 1 0
c p weight 496 -1 0
c p weight -499 1 0
c p weight 499 -1 0
c p weight -502 1 0
c p weight 502 -1 0
c p weight -505 1 0
c p weight 505 -1 0
c p weight -508 1 0
c p weight 508 -1 0
c p weight -511 1 0
c p weight 511 -1 0
c p weight -514 1 0
c p weight 514 -1 0
c p weight -517 1 0
c p weight 517 -1 0
c p weight -520 1 0
c p weight 520 -1 0
c p weight -523 1 0
c p weight 523 -1 0
c p weight -526 1 0
c p weight 526 -1 0
c p weight -529 1 0
c p weight 529 -1 0
c p weight -532 1 0
c p weight 532 -1 0
c p weight -535 1 0
c p weight 535 -1 0
c p weight -538 1 0
c p weight 538 -1 0
c p weight -541 1 0
c p weight 541 -1 0
c p weight -544 1 0
c p weight 544 -1 0
c p weight -547 1 0
c p weight 547 -1 0
c p weight -550 1 0
c p weight 550 -1 0
c p weight -553 1 0
c p weight 553 -1 0
c p weight -556 1 0
c p weight 556 -1 0
c p weight -559 1 0
c p weight 559 -1 0
c p weight -562 1 0
c p weight 562 -1 0
c p weight -565 1 0
c p weight 565 -1 0
c p weight -568 1 0
c p weight 568 -1 0
c p weight -571 1 0
c p weight 571 -1 0
c p weight -574 1 0
c p weight 574 -1 0
c p weight -577 1 0
c p weight 577 -1 0
c p weight -580 1 0
c p weight 580 -1 0
c p weight -583 1 0
c p weight 583 -1 0
c p weight -586 1 0
c p weight 586 -1 0
c p weight -589 1 0
c p weight 589 -1 0
c p weight -592 1 0
c p weight 592 -1 0
c p weight -595 1 0
c p weight 595 -1 0
c p weight -598 1 0
c p weight 598 -1 0
c p weight -601 1 0
c p weight 601 -1 0
c p weight -604 1 0
c p weight 604 -1 0
c p weight -607 1 0
c p weight 607 -1 0
c p weight -610 1 0
c p weight 610 -1 0
c p weight -613 1 0
c p weight 613 -1 0
c p weight -616 1 0
c p weight 616 -1 0
c p weight -619 1 0
c p weight 619 -1 0
c p weight -622 1 0
c p weight 622 -1 0
c p weight -625 1 0
c p weight 625 -1 0
c p weight -628 1 0
c p weight 628 -1 0
c p weight -631 1 0
c p weight 631 -1 0
c p weight -634 1 0
c p weight 634 -1 0
c p weight -637 1 0
c p weight 637 -1 0
c p weight -640 1 0
c p weight 640 -1 0
c p weight -643 1 0
c p weight 643 -1 0
c p weight 646 0.5 0
c p weight -646 1 0
646 0
-255 0
-253 0
-251 0
-249 0
-247 0
-245 0
-243 0
-241 0
-239 0
-237 0
-235 0
-233 0
-231 0
-229 0
-227 0
-225 0
-223 0
-221 0
-219 0
-217 0
-215 0
-213 0
-211 0
-209 0
-207 0
-205 0
-203 0
-201 0
-199 0
-197 0
-195 0
-193 0
-191 0
-189 0
-187 0
-185 0
-183 0
-181 0
-179 0
-177 0
-175 0
-173 0
-171 0
-169 0
-167 0
-165 0
-163 0
-161 0
-159 0
-157 0
-155 0
-153 0
-151 0
-149 0
-147 0
-145 0
-143 0
-141 0
-139 0
-137 0
-135 0
-133 0
-131 0
-129 0
-127 0
-125 0
-123 0
-121 0
-119 0
-117 0
-115 0
-113 0
-111 0
-109 0
-107 0
-105 0
-103 0
-101 0
-99 0
-97 0
-95 0
-93 0
-91 0
-89 0
-87 0
-85 0
-83 0
-81 0
-79 0
-77 0
-75 0
-73 0
-71 0
-69 0
-67 0
-65 0
-63 0
-61 0
-59 0
-57 0
-55 0
-53 0
-51 0
-49 0
-47 0
-45 0
-43 0
-41 0
-39 0
-37 0
-35 0
-33 0
-31 0
-29 0
-27 0
-25 0
-23 0
-21 0
-19 0
-17 0
-15 0
-13 0
-11 0
-9 0
-7 0
-5 0
-3 0
-1 0
-257 255 0
-257 256 0
257 -255 -256 0
258 255 -256 0
258 -255 256 0
-258 255 256 0
-258 -255 -256 0
-259 260 0
-259 258 0
-259 -255 0
259 -260 255 -258 0
260 -255 258 0
-260 255 258 0
-261 258 0
260 -261 -255 0
-260 -261 255 0
260 261 255 -258 0
-260 261 -255 -258 0
-262 258 0
260 -262 255 0
-260 -262 -255 0
260 262 -255 -258 0
-260 262 255 -258 0
-263 260 0
-263 258 0
263 -260 -258 0
264 260 -258 0
264 -260 258 0
-264 260 258 0
-264 -260 -258 0
-265 260 0
-265 254 0
-265 253 -264 0
-265 -253 264 0
265 -260 253 264 -254 0
265 -260 -253 -264 -254 0
267 260 -253 0
267 -260 253 0
-267 260 253 0
-267 -260 -253 0
266 264 -254 0
266 -264 254 0
-266 264 254 0
-266 -264 -254 0
-268 267 0
-268 252 0
-268 251 -254 0
-268 -251 254 0
268 -267 251 254 -252 0
268 -267 -251 -254 -252 0
270 267 -251 0
270 -267 251 0
-270 267 251 0
-270 -267 -251 0
269 254 -252 0
269 -254 252 0
-269 254 252 0
-269 -254 -252 0
-271 270 0
-271 250 0
-271 249 -252 0
-271 -249 252 0
271 -270 249 252 -250 0
271 -270 -249 -252 -250 0
273 270 -249 0
273 -270 249 0
-273 270 249 0
-273 -270 -249 0
272 252 -250 0
272 -252 250 0
-272 252 250 0
-272 -252 -250 0
-274 273 0
-274 248 0
-274 247 -250 0
-274 -247 250 0
274 -273 247 250 -248 0
274 -273 -247 -250 -248 0
276 273 -247 0
276 -273 247 0
-276 273 247 0
-276 -273 -247 0
275 250 -248 0
275 -250 248 0
-275 250 248 0
-275 -250 -248 0
-277 276 0
-277 246 0
-277 245 -248 0
-277 -245 248 0
277 -276 245 248 -246 0
277 -276 -245 -248 -246 0
279 276 -245 0
279 -276 245 0
-279 276 245 0
-279 -276 -245 0
278 248 -246 0
278 -248 246 0
-278 248 246 0
-278 -248 -246 0
-280 279 0
-280 244 0
-280 243 -246 0
-280 -243 246 0
280 -279 243 246 -244 0
280 -279 -243 -246 -244 0
282 279 -243 0
282 -279 243 0
-282 279 243 0
-282 -279 -243 0
281 246 -244 0
281 -246 244 0
-281 246 244 0
-281 -246 -244 0
-283 282 0
-283 242 0
-283 241 -244 0
-283 -241 244 0
283 -282 241 244 -242 0
283 -282 -241 -244 -242 0
285 282 -241 0
285 -282 241 0
-285 282 241 0
-285 -282 -241 0
284 244 -242 0
284 -244 242 0
-284 244 242 0
-284 -244 -242 0
-286 285 0
-286 240 0
-286 239 -242 0
-286 -239 242 0
286 -285 239 242 -240 0
286 -285 -239 -242 -240 0
288 285 -239 0
288 -285 239 0
-288 285 239 0
-288 -285 -239 0
287 242 -240 0
287 -242 240 0
-287 242 240 0
-287 -242 -240 0
-289 288 0
-289 238 0
-289 237 -240 0
-289 -237 240 0
289 -288 237 240 -238 0
289 -288 -237 -240 -238 0
291 288 -237 0
291 -288 237 0
-291 288 237 0
-291 -288 -237 0
290 240 -238 0
290 -240 238 0
-290 240 238 0
-290 -240 -238 0
-292 291 0
-292 236 0
-292 235 -238 0
-292 -235 238 0
292 -291 235 238 -236 0
292 -291 -235 -238 -236 0
294 291 -235 0
294 -291 235 0
-294 291 235 0
-294 -291 -235 0
293 238 -236 0
293 -238 236 0
-293 238 236 0
-293 -238 -236 0
-295 294 0
-295 234 0
-295 233 -236 0
-295 -233 236 0
295 -294 233 236 -234 0
295 -294 -233 -236 -234 0
297 294 -233 0
297 -294 233 0
-297 294 233 0
-297 -294 -233 0
296 236 -234 0
296 -236 234 0
-296 236 234 0
-296 -236 -234 0
-298 297 0
-298 232 0
-298 231 -234 0
-298 -231 234 0
298 -297 231 234 -232 0
298 -297 -231 -234 -232 0
300 297 -231 0
300 -297 231 0
-300 297 231 0
-300 -297 -231 0
299 234 -232 0
299 -234 232 0
-299 234 232 0
-299 -234 -232 0
-301 300 0
-301 230 0
-301 229 -232 0
-301 -229 232 0
301 -300 229 232 -230 0
301 -300 -229 -232 -230 0
303 300 -229 0
303 -300 229 0
-303 300 229 0
-303 -300 -229 0
302 232 -230 0
302 -232 230 0
-302 232 230 0
-302 -232 -230 0
-304 303 0
-304 228 0
-304 227 -230 0
-304 -227 230 0
304 -303 227 230 -228 0
304 -303 -227 -230 -228 0
306 303 -227 0
306 -303 227 0
-306 303 227 0
-306 -303 -227 0
305 230 -228 0
305 -230 228 0
-305 230 228 0
-305 -230 -228 0
-307 306 0
-307 226 0
-307 225 -228 0
-307 -225 228 0
307 -306 225 228 -226 0
307 -306 -225 -228 -226 0
309 306 -225 0
309 -306 225 0
-309 306 225 0
-309 -306 -225 0
308 228 -226 0
308 -228 226 0
-308 228 226 0
-308 -228 -226 0
-310 309 0
-310 224 0
-310 223 -226 0
-310 -223 226 0
310 -309 223 226 -224 0
310 -309 -223 -226 -224 0
312 309 -223 0
312 -309 223 0
-312 309 223 0
-312 -309 -223 0
311 226 -224 0
311 -226 224 0
-311 226 224 0
-311 -226 -224 0
-313 312 0
-313 222 0
-313 221 -224 0
-313 -221 224 0
313 -312 221 224 -222 0
313 -312 -221 -224 -222 0
315 312 -221 0
315 -312 221 0
-315 312 221 0
-315 -312 -221 0
314 224 -222 0
314 -224 222 0
-314 224 222 0
-314 -224 -222 0
-316 315 0
-316 220 0
-316 219 -222 0
-316 -219 222 0
316 -315 219 222 -220 0
316 -315 -219 -222 -220 0
318 315 -219 0
318 -315 219 0
-318 315 219 0
-318 -315 -219 0
317 222 -220 0
317 -222 220 0
-317 222 220 0
-317 -222 -220 0
-319 318 0
-319 218 0
-319 217 -220 0
-319 -217 220 0
319 -318 217 220 -218 0
319 -318 -217 -220 -218 0
321 318 -217 0
321 -318 217 0
-321 318 217 0
-321 -318 -217 0
320 220 -218 0
320 -220 218 0
-320 220 218 0
-320 -220 -218 0
-322 321 0
-322 216 0
-322 215 -218 0
-322 -215 218 0
322 -321 215 218 -216 0
322 -321 -215 -218 -216 0
324 321 -215 0
324 -321 215 0
-324 321 215 0
-324 -321 -215 0
323 218 -216 0
323 -218 216 0
-323 218 216 0
-323 -218 -216 0
-325 324 0
-325 214 0
-325 213 -216 0
-325 -213 216 0
325 -324 213 216 -214 0
325 -324 -213 -216 -214 0
327 324 -213 0
327 -324 213 0
-327 324 213 0
-327 -324 -213 0
326 216 -214 0
326 -216 214 0
-326 216 214 0
-326 -216 -214 0
-328 327 0
-328 212 0
-328 211 -214 0
-328 -211 214 0
328 -327 211 214 -212 0
328 -327 -211 -214 -212 0
330 327 -211 0
330 -327 211 0
-330 327 211 0
-330 -327 -211 0
329 214 -212 0
329 -214 212 0
-329 214 212 0
-329 -214 -212 0
-331 330 0
-331 210 0
-331 209 -212 0
-331 -209 212 0
331 -330 209 212 -210 0
331 -330 -209 -212 -210 0
333 330 -209 0
333 -330 209 0
-333 330 209 0
-333 -330 -209 0
332 212 -210 0
332 -212 210 0
-332 212 210 0
-332 -212 -210 0
-334 333 0
-334 208 0
-334 207 -210 0
-334 -207 210 0
334 -333 207 210 -208 0
334 -333 -207 -210 -208 0
336 333 -207 0
336 -333 207 0
-336 333 207 0
-336 -333 -207 0
335 210 -208 0
335 -210 208 0
-335 210 208 0
-335 -210 -208 0
-337 336 0
-337 206 0
-337 205 -208 0
-337 -205 208 0
337 -336 205 208 -206 0
337 -336 -205 -208 -206 0
339 336 -205 0
339 -336 205 0
-339 336 205 0
-339 -336 -205 0
338 208 -206 0
338 -208 206 0
-338 208 206 0
-338 -208 -206 0
-340 339 0
-340 204 0
-340 203 -206 0
-340 -203 206 0
340 -339 203 206 -204 0
340 -339 -203 -206 -204 0
342 339 -203 0
342 -339 203 0
-342 339 203 0
-342 -339 -203 0
341 206 -204 0
341 -206 204 0
-341 206 204 0
-341 -206 -204 0
-343 342 0
-343 202 0
-343 201 -204 0
-343 -201 204 0
343 -342 201 204 -202 0
343 -342 -201 -204 -202 0
345 342 -201 0
345 -342 201 0
-345 342 201 0
-345 -342 -201 0
344 204 -202 0
344 -204 202 0
-344 204 202 0
-344 -204 -202 0
-346 345 0
-346 200 0
-346 199 -202 0
-346 -199 202 0
346 -345 199 202 -200 0
346 -345 -199 -202 -200 0
348 345 -199 0
348 -345 199 0
-348 345 199 0
-348 -345 -199 0
347 202 -200 0
347 -202 200 0
-347 202 200 0
-347 -202 -200 0
-349 348 0
-349 198 0
-349 197 -200 0
-349 -197 200 0
349 -348 197 200 -198 0
349 -348 -197 -200 -198 0
351 348 -197 0
351 -348 197 0
-351 348 197 0
-351 -348 -197 0
350 200 -198 0
350 -200 198 0
-350 200 198 0
-350 -200 -198 0
-352 351 0
-352 196 0
-352 195 -198 0
-352 -195 198 0
352 -351 195 198 -196 0
352 -351 -195 -198 -196 0
354 351 -195 0
354 -351 195 0
-354 351 195 0
-354 -351 -195 0
353 198 -196 0
353 -198 196 0
-353 198 196 0
-353 -198 -196 0
-355 354 0
-355 194 0
-355 193 -196 0
-355 -193 196 0
355 -354 193 196 -194 0
355 -354 -193 -196 -194 0
357 354 -193 0
357 -354 193 0
-357 354 193 0
-357 -354 -193 0
356 196 -194 0
356 -196 194 0
-356 196 194 0
-356 -196 -194 0
-358 357 0
-358 192 0
-358 191 -194 0
-358 -191 194 0
358 -357 191 194 -192 0
358 -357 -191 -194 -192 0
360 357 -191 0
360 -357 191 0
-360 357 191 0
-360 -357 -191 0
359 194 -192 0
359 -194 192 0
-359 194 192 0
-359 -194 -192 0
-361 360 0
-361 190 0
-361 189 -192 0
-361 -189 192 0
361 -360 189 192 -190 0
361 -360 -189 -192 -190 0
363 360 -189 0
363 -360 189 0
-363 360 189 0
-363 -360 -189 0
362 192 -190 0
362 -192 190 0
-362 192 190 0
-362 -192 -190 0
-364 363 0
-364 188 0
-364 187 -190 0
-364 -187 190 0
364 -363 187 190 -188 0
364 -363 -187 -190 -188 0
366 363 -187 0
366 -363 187 0
-366 363 187 0
-366 -363 -187 0
365 190 -188 0
365 -190 188 0
-365 190 188 0
-365 -190 -188 0
-367 366 0
-367 186 0
-367 185 -188 0
-367 -185 188 0
367 -366 185 188 -186 0
367 -366 -185 -188 -186 0
369 366 -185 0
369 -366 185 0
-369 366 185 0
-369 -366 -185 0
368 188 -186 0
368 -188 186 0
-368 188 186 0
-368 -188 -186 0
-370 369 0
-370 184 0
-370 183 -186 0
-370 -183 186 0
370 -369 183 186 -184 0
370 -369 -183 -186 -184 0
372 369 -183 0
372 -369 183 0
-372 369 183 0
-372 -369 -183 0
371 186 -184 0
371 -186 184 0
-371 186 184 0
-371 -186 -184 0
-373 372 0
-373 182 0
-373 181 -184 0
-373 -181 184 0
373 -372 181 184 -182 0
373 -372 -181 -184 -182 0
375 372 -181 0
375 -372 181 0
-375 372 181 0
-375 -372 -181 0
374 184 -182 0
374 -184 182 0
-374 184 182 0
-374 -184 -182 0
-376 375 0
-376 180 0
-376 179 -182 0
-376 -179 182 0
376 -375 179 182 -180 0
376 -375 -179 -182 -180 0
378 375 -179 0
378 -375 179 0
-378 375 179 0
-378 -375 -179 0
377 182 -180 0
377 -182 180 0
-377 182 180 0
-377 -182 -180 0
-379 378 0
-379 178 0
-379 177 -180 0
-379 -177 180 0
379 -378 177 180 -178 0
379 -378 -177 -180 -178 0
381 378 -177 0
381 -378 177 0
-381 378 177 0
-381 -378 -177 0
380 180 -178 0
380 -180 178 0
-380 180 178 0
-380 -180 -178 0
-382 381 0
-382 176 0
-382 175 -178 0
-382 -175 178 0
382 -381 175 178 -176 0
382 -381 -175 -178 -176 0
384 381 -175 0
384 -381 175 0
-384 381 175 0
-384 -381 -175 0
383 178 -176 0
383 -178 176 0
-383 178 176 0
-383 -178 -176 0
-385 384 0
-385 174 0
-385 173 -176 0
-385 -173 176 0
385 -384 173 176 -174 0
385 -384 -173 -176 -174 0
387 384 -173 0
387 -384 173 0
-387 384 173 0
-387 -384 -173 0
386 176 -174 0
386 -176 174 0
-386 176 174 0
-386 -176 -174 0
-388 387 0
-388 172 0
-388 171 -174 0
-388 -171 174 0
388 -387 171 174 -172 0
388 -387 -171 -174 -172 0
390 387 -171 0
390 -387 171 0
-390 387 171 0
-390 -387 -171 0
389 174 -172 0
389 -174 172 0
-389 174 172 0
-389 -174 -172 0
-391 390 0
-391 170 0
-391 169 -172 0
-391 -169 172 0
391 -390 169 172 -170 0
391 -390 -169 -172 -170 0
393 390 -169 0
393 -390 169 0
-393 390 169 0
-393 -390 -169 0
392 172 -170 0
392 -172 170 0
-392 172 170 0
-392 -172 -170 0
-394 393 0
-394 168 0
-394 167 -170 0
-394 -167 170 0
394 -393 167 170 -168 0
394 -393 -167 -170 -168 0
396 393 -167 0
396 -393 167 0
-396 393 167 0
-396 -393 -167 0
395 170 -168 0
395 -170 168 0
-395 170 168 0
-395 -170 -168 0
-397 396 0
-397 166 0
-397 165 -168 0
-397 -165 168 0
397 -396 165 168 -166 0
397 -396 -165 -168 -166 0
399 396 -165 0
399 -396 165 0
-399 396 165 0
-399 -396 -165 0
398 168 -166 0
398 -168 166 0
-398 168 166 0
-398 -168 -166 0
-400 399 0
-400 164 0
-400 163 -166 0
-400 -163 166 0
400 -399 163 166 -164 0
400 -399 -163 -166 -164 0
402 399 -163 0
402 -399 163 0
-402 399 163 0
-402 -399 -163 0
401 166 -164 0
401 -166 164 0
-401 166 164 0
-401 -166 -164 0
-403 402 0
-403 162 0
-403 161 -164 0
-403 -161 164 0
403 -402 161 164 -162 0
403 -402 -161 -164 -162 0
405 402 -161 0
405 -402 161 0
-405 402 161 0
-405 -402 -161 0
404 164 -162 0
404 -164 162 0
-404 164 162 0
-404 -164 -162 0
-406 405 0
-406 160 0
-406 159 -162 0
-406 -159 162 0
406 -405 159 162 -160 0
406 -405 -159 -162 -160 0
408 405 -159 0
408 -405 159 0
-408 405 159 0
-408 -405 -159 0
407 162 -160 0
407 -162 160 0
-407 162 160 0
-407 -162 -160 0
-409 408 0
-409 158 0
-409 157 -160 0
-409 -157 160 0
409 -408 157 160 -158 0
409 -408 -157 -160 -158 0
411 408 -157 0
411 -408 157 0
-411 408 157 0
-411 -408 -157 0
410 160 -158 0
410 -160 158 0
-410 160 158 0
-410 -160 -158 0
-412 411 0
-412 156 0
-412 155 -158 0
-412 -155 158 0
412 -411 155 158 -156 0
412 -411 -155 -158 -156 0
414 411 -155 0
414 -411 155 0
-414 411 155 0
-414 -411 -155 0
413 158 -156 0
413 -158 156 0
-413 158 156 0
-413 -158 -156 0
-415 414 0
-415 154 0
-415 153 -156 0
-415 -153 156 0
415 -414 153 156 -154 0
415 -414 -153 -156 -154 0
417 414 -153 0
417 -414 153 0
-417 414 153 0
-417 -414 -153 0
416 156 -154 0
416 -156 154 0
-416 156 154 0
-416 -156 -154 0
-418 417 0
-418 152 0
-418 151 -154 0
-418 -151 154 0
418 -417 151 154 -152 0
418 -417 -151 -154 -152 0
420 417 -151 0
420 -417 151 0
-420 417 151 0
-420 -417 -151 0
419 154 -152 0
419 -154 152 0
-419 154 152 0
-419 -154 -152 0
-421 420 0
-421 150 0
-421 149 -152 0
-421 -149 152 0
421 -420 149 152 -150 0
421 -420 -149 -152 -150 0
423 420 -149 0
423 -420 149 0
-423 420 149 0
-423 -420 -149 0
422 152 -150 0
422 -152 150 0
-422 152 150 0
-422 -152 -150 0
-424 423 0
-424 148 0
-424 147 -150 0
-424 -147 150 0
424 -423 147 150 -148 0
424 -423 -147 -150 -148 0
426 423 -147 0
426 -423 147 0
-426 423 147 0
-426 -423 -147 0
425 150 -148 0
425 -150 148 0
-425 150 148 0
-425 -150 -148 0
-427 426 0
-427 146 0
-427 145 -148 0
-427 -145 148 0
427 -426 145 148 -146 0
427 -426 -145 -148 -146 0
429 426 -145 0
429 -426 145 0
-429 426 145 0
-429 -426 -145 0
428 148 -146 0
428 -148 146 0
-428 148 146 0
-428 -148 -146 0
-430 429 0
-430 144 0
-430 143 -146 0
-430 -143 146 0
430 -429 143 146 -144 0
430 -429 -143 -146 -144 0
432 429 -143 0
432 -429 143 0
-432 429 143 0
-432 -429 -143 0
431 146 -144 0
431 -146 144 0
-431 146 144 0
-431 -146 -144 0
-433 432 0
-433 142 0
-433 141 -144 0
-433 -141 144 0
433 -432 141 144 -142 0
433 -432 -141 -144 -142 0
435 432 -141 0
435 -432 141 0
-435 432 141 0
-435 -432 -141 0
434 144 -142 0
434 -144 142 0
-434 144 142 0
-434 -144 -142 0
-436 435 0
-436 140 0
-436 139 -142 0
-436 -139 142 0
436 -435 139 142 -140 0
436 -435 -139 -142 -140 0
438 435 -139 0
438 -435 139 0
-438 435 139 0
-438 -435 -139 0
437 142 -140 0
437 -142 140 0
-437 142 140 0
-437 -142 -140 0
-439 438 0
-439 138 0
-439 137 -140 0
-439 -137 140 0
439 -438 137 140 -138 0
439 -438 -137 -140 -138 0
441 438 -137 0
441 -438 137 0
-441 438 137 0
-441 -438 -137 0
440 140 -138 0
440 -140 138 0
-440 140 138 0
-440 -140 -138 0
-442 441 0
-442 136 0
-442 135 -138 0
-442 -135 138 0
442 -441 135 138 -136 0
442 -441 -135 -138 -136 0
444 441 -135 0
444 -441 135 0
-444 441 135 0
-444 -441 -135 0
443 138 -136 0
443 -138 136 0
-443 138 136 0
-443 -138 -136 0
-445 444 0
-445 134 0
-445 133 -136 0
-445 -133 136 0
445 -444 133 136 -134 0
445 -444 -133 -136 -134 0
447 444 -133 0
447 -444 133 0
-447 444 133 0
-447 -444 -133 0
446 136 -134 0
446 -136 134 0
-446 136 134 0
-446 -136 -134 0
-448 447 0
-448 132 0
-448 131 -134 0
-448 -131 134 0
448 -447 131 134 -132 0
448 -447 -131 -134 -132 0
450 447 -131 0
450 -447 131 0
-450 447 131 0
-450 -447 -131 0
449 134 -132 0
449 -134 132 0
-449 134 132 0
-449 -134 -132 0
-451 450 0
-451 130 0
-451 129 -132 0
-451 -129 132 0
451 -450 129 132 -130 0
451 -450 -129 -132 -130 0
453 450 -129 0
453 -450 129 0
-453 450 129 0
-453 -450 -129 0
452 132 -130 0
452 -132 130 0
-452 132 130 0
-452 -132 -130 0
-454 453 0
-454 128 0
-454 127 -130 0
-454 -127 130 0
454 -453 127 130 -128 0
454 -453 -127 -130 -128 0
456 453 -127 0
456 -453 127 0
-456 453 127 0
-456 -453 -127 0
455 130 -128 0
455 -130 128 0
-455 130 128 0
-455 -130 -128 0
-457 456 0
-457 126 0
-457 125 -128 0
-457 -125 128 0
457 -456 125 128 -126 0
457 -456 -125 -128 -126 0
459 456 -125 0
459 -456 125 0
-459 456 125 0
-459 -456 -125 0
458 128 -126 0
458 -128 126 0
-458 128 126 0
-458 -128 -126 0
-460 459 0
-460 124 0
-460 123 -126 0
-460 -123 126 0
460 -459 123 126 -124 0
460 -459 -123 -126 -124 0
462 459 -123 0
462 -459 123 0
-462 459 123 0
-462 -459 -123 0
461 126 -124 0
461 -126 124 0
-461 126 124 0
-461 -126 -124 0
-463 462 0
-463 122 0
-463 121 -124 0
-463 -121 124 0
463 -462 121 124 -122 0
463 -462 -121 -124 -122 0
465 462 -121 0
465 -462 121 0
-465 462 121 0
-465 -462 -121 0
464 124 -122 0
464 -124 122 0
-464 124 122 0
-464 -124 -122 0
-466 465 0
-466 120 0
-466 119 -122 0
-466 -119 122 0
466 -465 119 122 -120 0
466 -465 -119 -122 -120 0
468 465 -119 0
468 -465 119 0
-468 465 119 0
-468 -465 -119 0
467 122 -120 0
467 -122 120 0
-467 122 120 0
-467 -122 -120 0
-469 468 0
-469 118 0
-469 117 -120 0
-469 -117 120 0
469 -468 117 120 -118 0
469 -468 -117 -120 -118 0
471 468 -117 0
471 -468 117 0
-471 468 117 0
-471 -468 -117 0
470 120 -118 0
470 -120 118 0
-470 120 118 0
-470 -120 -118 0
-472 471 0
-472 116 0
-472 115 -118 0
-472 -115 118 0
472 -471 115 118 -116 0
472 -471 -115 -118 -116 0
474 471 -115 0
474 -471 115 0
-474 471 115 0
-474 -471 -115 0
473 118 -116 0
473 -118 116 0
-473 118 116 0
-473 -118 -116 0
-475 474 0
-475 114 0
-475 113 -116 0
-475 -113 116 0
475 -474 113 116 -114 0
475 -474 -113 -116 -114 0
477 474 -113 0
477 -474 113 0
-477 474 113 0
-477 -474 -113 0
476 116 -114 0
476 -116 114 0
-476 116 114 0
-476 -116 -114 0
-478 477 0
-478 112 0
-478 111 -114 0
-478 -111 114 0
478 -477 111 114 -112 0
478 -477 -111 -114 -112 0
480 477 -111 0
480 -477 111 0
-480 477 111 0
-480 -477 -111 0
479 114 -112 0
479 -114 112 0
-479 114 112 0
-479 -114 -112 0
-481 480 0
-481 110 0
-481 109 -112 0
-481 -109 112 0
481 -480 109 112 -110 0
481 -480 -109 -112 -110 0
483 480 -109 0
483 -480 109 0
-483 480 109 0
-483 -480 -109 0
482 112 -110 0
482 -112 110 0
-482 112 110 0
-482 -112 -110 0
-484 483 0
-484 108 0
-484 107 -110 0
-484 -107 110 0
484 -483 107 110 -108 0
484 -483 -107 -110 -108 0
486 483 -107 0
486 -483 107 0
-486 483 107 0
-486 -483 -107 0
485 110 -108 0
485 -110 108 0
-485 110 108 0
-485 -110 -108 0
-487 486 0
-487 106 0
-487 105 -108 0
-487 -105 108 0
487 -486 105 108 -106 0
487 -486 -105 -108 -106 0
489 486 -105 0
489 -486 105 0
-489 486 105 0
-489 -486 -105 0
488 108 -106 0
488 -108 106 0
-488 108 106 0
-488 -108 -106 0
-490 489 0
-490 104 0
-490 103 -106 0
-490 -103 106 0
490 -489 103 106 -104 0
490 -489 -103 -106 -104 0
492 489 -103 0
492 -489 103 0
-492 489 103 0
-492 -489 -103 0
491 106 -104 0
491 -106 104 0
-491 106 104 0
-491 -106 -104 0
-493 492 0
-493 102 0
-493 101 -104 0
-493 -101 104 0
493 -492 101 104 -102 0
493 -492 -101 -104 -102 0
495 492 -101 0
495 -492 101 0
-495 492 101 0
-495 -492 -101 0
494 104 -102 0
494 -104 102 0
-494 104 102 0
-494 -104 -102 0
-496 495 0
-496 100 0
-496 99 -102 0
-496 -99 102 0
496 -495 99 102 -100 0
496 -495 -99 -102 -100 0
498 495 -99 0
498 -495 99 0
-498 495 99 0
-498 -495 -99 0
497 102 -100 0
497 -102 100 0
-497 102 100 0
-497 -102 -100 0
-499 498 0
-499 98 0
-499 97 -100 0
-499 -97 100 0
499 -498 97 100 -98 0
499 -498 -97 -100 -98 0
501 498 -97 0
501 -498 97 0
-501 498 97 0
-501 -498 -97 0
500 100 -98 0
500 -100 98 0
-500 100 98 0
-500 -100 -98 0
-502 501 0
-502 96 0
-502 95 -98 0
-502 -95 98 0
502 -501 95 98 -96 0
502 -501 -95 -98 -96 0
504 501 -95 0
504 -501 95 0
-504 501 95 0
-504 -501 -95 0
503 98 -96 0
503 -98 96 0
-503 98 96 0
-503 -98 -96 0
-505 504 0
-505 94 0
-505 93 -96 0
-505 -93 96 0
505 -504 93 96 -94 0
505 -504 -93 -96 -94 0
507 504 -93 0
507 -504 93 0
-507 504 93 0
-507 -504 -93 0
506 96 -94 0
506 -96 94 0
-506 96 94 0
-506 -96 -94 0
-508 507 0
-508 92 0
-508 91 -94 0
-508 -91 94 0
508 -507 91 94 -92 0
508 -507 -91 -94 -92 0
510 507 -91 0
510 -507 91 0
-510 507 91 0
-510 -507 -91 0
509 94 -92 0
509 -94 92 0
-509 94 92 0
-509 -94 -92 0
-511 510 0
-511 90 0
-511 89 -92 0
-511 -89 92 0
511 -510 89 92 -90 0
511 -510 -89 -92 -90 0
513 510 -89 0
513 -510 89 0
-513 510 89 0
-513 -510 -89 0
512 92 -90 0
512 -92 90 0
-512 92 90 0
-512 -92 -90 0
-514 513 0
-514 88 0
-514 87 -90 0
-514 -87 90 0
514 -513 87 90 -88 0
514 -513 -87 -90 -88 0
516 513 -87 0
516 -513 87 0
-516 513 87 0
-516 -513 -87 0
515 90 -88 0
515 -90 88 0
-515 90 88 0
-515 -90 -88 0
-517 516 0
-517 86 0
-517 85 -88 0
-517 -85 88 0
517 -516 85 88 -86 0
517 -516 -85 -88 -86 0
519 516 -85 0
519 -516 85 0
-519 516 85 0
-519 -516 -85 0
518 88 -86 0
518 -88 86 0
-518 88 86 0
-518 -88 -86 0
-520 519 0
-520 84 0
-520 83 -86 0
-520 -83 86 0
520 -519 83 86 -84 0
520 -519 -83 -86 -84 0
522 519 -83 0
522 -519 83 0
-522 519 83 0
-522 -519 -83 0
521 86 -84 0
521 -86 84 0
-521 86 84 0
-521 -86 -84 0
-523 522 0
-523 82 0
-523 81 -84 0
-523 -81 84 0
523 -522 81 84 -82 0
523 -522 -81 -84 -82 0
525 522 -81 0
525 -522 81 0
-525 522 81 0
-525 -522 -81 0
524 84 -82 0
524 -84 82 0
-524 84 82 0
-524 -84 -82 0
-526 525 0
-526 80 0
-526 79 -82 0
-526 -79 82 0
526 -525 79 82 -80 0
526 -525 -79 -82 -80 0
528 525 -79 0
528 -525 79 0
-528 525 79 0
-528 -525 -79 0
527 82 -80 0
527 -82 80 0
-527 82 80 0
-527 -82 -80 0
-529 528 0
-529 78 0
-529 77 -80 0
-529 -77 80 0
529 -528 77 80 -78 0
529 -528 -77 -80 -78 0
531 528 -77 0
531 -528 77 0
-531 528 77 0
-531 -528 -77 0
530 80 -78 0
530 -80 78 0
-530 80 78 0
-530 -80 -78 0
-532 531 0
-532 76 0
-532 75 -78 0
-532 -75 78 0
532 -531 75 78 -76 0
532 -531 -75 -78 -76 0
534 531 -75 0
534 -531 75 0
-534 531 75 0
-534 -531 -75 0
533 78 -76 0
533 -78 76 0
-533 78 76 0
-533 -78 -76 0
-535 534 0
-535 74 0
-535 73 -76 0
-535 -73 76 0
535 -534 73 76 -74 0
535 -534 -73 -76 -74 0
537 534 -73 0
537 -534 73 0
-537 534 73 0
-537 -534 -73 0
536 76 -74 0
536 -76 74 0
-536 76 74 0
-536 -76 -74 0
-538 537 0
-538 72 0
-538 71 -74 0
-538 -71 74 0
538 -537 71 74 -72 0
538 -537 -71 -74 -72 0
540 537 -71 0
540 -537 71 0
-540 537 71 0
-540 -537 -71 0
539 74 -72 0
539 -74 72 0
-539 74 72 0
-539 -74 -72 0
-541 540 0
-541 70 0
-541 69 -72 0
-541 -69 72 0
541 -540 69 72 -70 0
541 -540 -69 -72 -70 0
543 540 -69 0
543 -540 69 0
-543 540 69 0
-543 -540 -69 0
542 72 -70 0
542 -72 70 0
-542 72 70 0
-542 -72 -70 0
-544 543 0
-544 68 0
-544 67 -70 0
-544 -67 70 0
544 -543 67 70 -68 0
544 -543 -67 -70 -68 0
546 543 -67 0
546 -543 67 0
-546 543 67 0
-546 -543 -67 0
545 70 -68 0
545 -70 68 0
-545 70 68 0
-545 -70 -68 0
-547 546 0
-547 66 0
-547 65 -68 0
-547 -65 68 0
547 -546 65 68 -66 0
547 -546 -65 -68 -66 0
549 546 -65 0
549 -546 65 0
-549 546 65 0
-549 -546 -65 0
548 68 -66 0
548 -68 66 0
-548 68 66 0
-548 -68 -66 0
-550 549 0
-550 64 0
-550 63 -66 0
-550 -63 66 0
550 -549 63 66 -64 0
550 -549 -63 -66 -64 0
552 549 -63 0
552 -549 63 0
-552 549 63 0
-552 -549 -63 0
551 66 -64 0
551 -66 64 0
-551 66 64 0
-551 -66 -64 0
-553 552 0
-553 62 0
-553 61 -64 0
-553 -61 64 0
553 -552 61 64 -62 0
553 -552 -61 -64 -62 0
555 552 -61 0
555 -552 61 0
-555 552 61 0
-555 -552 -61 0
554 64 -62 0
554 -64 62 0
-554 64 62 0
-554 -64 -62 0
-556 555 0
-556 60 0
-556 59 -62 0
-556 -59 62 0
556 -555 59 62 -60 0
556 -555 -59 -62 -60 0
558 555 -59 0
558 -555 59 0
-558 555 59 0
-558 -555 -59 0
557 62 -60 0
557 -62 60 0
-557 62 60 0
-557 -62 -60 0
-559 558 0
-559 58 0
-559 57 -60 0
-559 -57 60 0
559 -558 57 60 -58 0
559 -558 -57 -60 -58 0
561 558 -57 0
561 -558 57 0
-561 558 57 0
-561 -558 -57 0
560 60 -58 0
560 -60 58 0
-560 60 58 0
-560 -60 -58 0
-562 561 0
-562 56 0
-562 55 -58 0
-562 -55 58 0
562 -561 55 58 -56 0
562 -561 -55 -58 -56 0
564 561 -55 0
564 -561 55 0
-564 561 55 0
-564 -561 -55 0
563 58 -56 0
563 -58 56 0
-563 58 56 0
-563 -58 -56 0
-565 564 0
-565 54 0
-565 53 -56 0
-565 -53 56 0
565 -564 53 56 -54 0
565 -564 -53 -56 -54 0
567 564 -53 0
567 -564 53 0
-567 564 53 0
-567 -564 -53 0
566 56 -54 0
566 -56 54 0
-566 56 54 0
-566 -56 -54 0
-568 567 0
-568 52 0
-568 51 -54 0
-568 -51 54 0
568 -567 51 54 -52 0
568 -567 -51 -54 -52 0
570 567 -51 0
570 -567 51 0
-570 567 51 0
-570 -567 -51 0
569 54 -52 0
569 -54 52 0
-569 54 52 0
-569 -54 -52 0
-571 570 0
-571 50 0
-571 49 -52 0
-571 -49 52 0
571 -570 49 52 -50 0
571 -570 -49 -52 -50 0
573 570 -49 0
573 -570 49 0
-573 570 49 0
-573 -570 -49 0
572 52 -50 0
572 -52 50 0
-572 52 50 0
-572 -52 -50 0
-574 573 0
-574 48 0
-574 47 -50 0
-574 -47 50 0
574 -573 47 50 -48 0
574 -573 -47 -50 -48 0
576 573 -47 0
576 -573 47 0
-576 573 47 0
-576 -573 -47 0
575 50 -48 0
575 -50 48 0
-575 50 48 0
-575 -50 -48 0
-577 576 0
-577 46 0
-577 45 -48 0
-577 -45 48 0
577 -576 45 48 -46 0
577 -576 -45 -48 -46 0
579 576 -45 0
579 -576 45 0
-579 576 45 0
-579 -576 -45 0
578 48 -46 0
578 -48 46 0
-578 48 46 0
-578 -48 -46 0
-580 579 0
-580 44 0
-580 43 -46 0
-580 -43 46 0
580 -579 43 46 -44 0
580 -579 -43 -46 -44 0
582 579 -43 0
582 -579 43 0
-582 579 43 0
-582 -579 -43 0
581 46 -44 0
581 -46 44 0
-581 46 44 0
-581 -46 -44 0
-583 582 0
-583 42 0
-583 41 -44 0
-583 -41 44 0
583 -582 41 44 -42 0
583 -582 -41 -44 -42 0
585 582 -41 0
585 -582 41 0
-585 582 41 0
-585 -582 -41 0
584 44 -42 0
584 -44 42 0
-584 44 42 0
-584 -44 -42 0
-586 585 0
-586 40 0
-586 39 -42 0
-586 -39 42 0
586 -585 39 42 -40 0
586 -585 -39 -42 -40 0
588 585 -39 0
588 -585 39 0
-588 585 39 0
-588 -585 -39 0
587 42 -40 0
587 -42 40 0
-587 42 40 0
-587 -42 -40 0
-589 588 0
-589 38 0
-589 37 -40 0
-589 -37 40 0
589 -588 37 40 -38 0
589 -588 -37 -40 -38 0
591 588 -37 0
591 -588 37 0
-591 588 37 0
-591 -588 -37 0
590 40 -38 0
590 -40 38 0
-590 40 38 0
-590 -40 -38 0
-592 591 0
-592 36 0
-592 35 -38 0
-592 -35 38 0
592 -591 35 38 -36 0
592 -591 -35 -38 -36 0
594 591 -35 0
594 -591 35 0
-594 591 35 0
-594 -591 -35 0
593 38 -36 0
593 -38 36 0
-593 38 36 0
-593 -38 -36 0
-595 594 0
-595 34 0
-595 33 -36 0
-595 -33 36 0
595 -594 33 36 -34 0
595 -594 -33 -36 -34 0
597 594 -33 0
597 -594 33 0
-597 594 33 0
-597 -594 -33 0
596 36 -34 0
596 -36 34 0
-596 36 34 0
-596 -36 -34 0
-598 597 0
-598 32 0
-598 31 -34 0
-598 -31 34 0
598 -597 31 34 -32 0
598 -597 -31 -34 -32 0
600 597 -31 0
600 -597 31 0
-600 597 31 0
-600 -597 -31 0
599 34 -32 0
599 -34 32 0
-599 34 32 0
-599 -34 -32 0
-601 600 0
-601 30 0
-601 29 -32 0
-601 -29 32 0
601 -600 29 32 -30 0
601 -600 -29 -32 -30 0
603 600 -29 0
603 -600 29 0
-603 600 29 0
-603 -600 -29 0
602 32 -30 0
602 -32 30 0
-602 32 30 0
-602 -32 -30 0
-604 603 0
-604 28 0
-604 27 -30 0
-604 -27 30 0
604 -603 27 30 -28 0
604 -603 -27 -30 -28 0
606 603 -27 0
606 -603 27 0
-606 603 27 0
-606 -603 -27 0
605 30 -28 0
605 -30 28 0
-605 30 28 0
-605 -30 -28 0
-607 606 0
-607 26 0
-607 25 -28 0
-607 -25 28 0
607 -606 25 28 -26 0
607 -606 -25 -28 -26 0
609 606 -25 0
609 -606 25 0
-609 606 25 0
-609 -606 -25 0
608 28 -26 0
608 -28 26 0
-608 28 26 0
-608 -28 -26 0
-610 609 0
-610 24 0
-610 23 -26 0
-610 -23 26 0
610 -609 23 26 -24 0
610 -609 -23 -26 -24 0
612 609 -23 0
612 -609 23 0
-612 609 23 0
-612 -609 -23 0
611 26 -24 0
611 -26 24 0
-611 26 24 0
-611 -26 -24 0
-613 612 0
-613 22 0
-613 21 -24 0
-613 -21 24 0
613 -612 21 24 -22 0
613 -612 -21 -24 -22 0
615 612 -21 0
615 -612 21 0
-615 612 21 0
-615 -612 -21 0
614 24 -22 0
614 -24 22 0
-614 24 22 0
-614 -24 -22 0
-616 615 0
-616 20 0
-616 19 -22 0
-616 -19 22 0
616 -615 19 22 -20 0
616 -615 -19 -22 -20 0
618 615 -19 0
618 -615 19 0
-618 615 19 0
-618 -615 -19 0
617 22 -20 0
617 -22 20 0
-617 22 20 0
-617 -22 -20 0
-619 618 0
-619 18 0
-619 17 -20 0
-619 -17 20 0
619 -618 17 20 -18 0
619 -618 -17 -20 -18 0
621 618 -17 0
621 -618 17 0
-621 618 17 0
-621 -618 -17 0
620 20 -18 0
620 -20 18 0
-620 20 18 0
-620 -20 -18 0
-622 621 0
-622 16 0
-622 15 -18 0
-622 -15 18 0
622 -621 15 18 -16 0
622 -621 -15 -18 -16 0
624 621 -15 0
624 -621 15 0
-624 621 15 0
-624 -621 -15 0
623 18 -16 0
623 -18 16 0
-623 18 16 0
-623 -18 -16 0
-625 624 0
-625 14 0
-625 13 -16 0
-625 -13 16 0
625 -624 13 16 -14 0
625 -624 -13 -16 -14 0
627 624 -13 0
627 -624 13 0
-627 624 13 0
-627 -624 -13 0
626 16 -14 0
626 -16 14 0
-626 16 14 0
-626 -16 -14 0
-628 627 0
-628 12 0
-628 11 -14 0
-628 -11 14 0
628 -627 11 14 -12 0
628 -627 -11 -14 -12 0
630 627 -11 0
630 -627 11 0
-630 627 11 0
-630 -627 -11 0
629 14 -12 0
629 -14 12 0
-629 14 12 0
-629 -14 -12 0
-631 630 0
-631 10 0
-631 9 -12 0
-631 -9 12 0
631 -630 9 12 -10 0
631 -630 -9 -12 -10 0
633 630 -9 0
633 -630 9 0
-633 630 9 0
-633 -630 -9 0
632 12 -10 0
632 -12 10 0
-632 12 10 0
-632 -12 -10 0
-634 633 0
-634 8 0
-634 7 -10 0
-634 -7 10 0
634 -633 7 10 -8 0
634 -633 -7 -10 -8 0
636 633 -7 0
636 -633 7 0
-636 633 7 0
-636 -633 -7 0
635 10 -8 0
635 -10 8 0
-635 10 8 0
-635 -10 -8 0
-637 636 0
-637 6 0
-637 5 -8 0
-637 -5 8 0
637 -636 5 8 -6 0
637 -636 -5 -8 -6 0
639 636 -5 0
639 -636 5 0
-639 636 5 0
-639 -636 -5 0
638 8 -6 0
638 -8 6 0
-638 8 6 0
-638 -8 -6 0
-640 639 0
-640 4 0
-640 3 -6 0
-640 -3 6 0
640 -639 3 6 -4 0
640 -639 -3 -6 -4 0
642 639 -3 0
642 -639 3 0
-642 639 3 0
-642 -639 -3 0
641 6 -4 0
641 -6 4 0
-641 6 4 0
-641 -6 -4 0
-643 642 0
-643 2 0
-643 1 -4 0
-643 -1 4 0
643 -642 1 4 -2 0
643 -642 -1 -4 -2 0
645 642 -1 0
645 -642 1 0
-645 642 1 0
-645 -642 -1 0
644 4 -2 0
644 -4 2 0
-644 4 2 0
-644 -4 -2 0
-645 0
-642 0
-644 0
-639 0
-641 0
-636 0
-638 0
-633 0
-635 0
-630 0
-632 0
-627 0
-629 0
-624 0
-626 0
-621 0
-623 0
-618 0
-620 0
-615 0
-617 0
-612 0
-614 0
-609 0
-611 0
-606 0
-608 0
-603 0
-605 0
-600 0
-602 0
-597 0
-599 0
-594 0
-596 0
-591 0
-593 0
-588 0
-590 0
-585 0
-587 0
-582 0
-584 0
-579 0
-581 0
-576 0
-578 0
-573 0
-575 0
-570 0
-572 0
-567 0
-569 0
-564 0
-566 0
-561 0
-563 0
-558 0
-560 0
-555 0
-557 0
-552 0
-554 0
-549 0
-551 0
-546 0
-548 0
-543 0
-545 0
-540 0
-542 0
-537 0
-539 0
-534 0
-536 0
-531 0
-533 0
-528 0
-530 0
-525 0
-527 0
-522 0
-524 0
-519 0
-521 0
-516 0
-518 0
-513 0
-515 0
-510 0
-512 0
-507 0
-509 0
-504 0
-506 0
-501 0
-503 0
-498 0
-500 0
-495 0
-497 0
-492 0
-494 0
-489 0
-491 0
-486 0
-488 0
-483 0
-485 0
-480 0
-482 0
-477 0
-479 0
-474 0
-476 0
-471 0
-473 0
-468 0
-470 0
-465 0
-467 0
-462 0
-464 0
-459 0
-461 0
-456 0
-458 0
-453 0
-455 0
-450 0
-452 0
-447 0
-449 0
-444 0
-446 0
-441 0
-443 0
-438 0
-440 0
-435 0
-437 0
-432 0
-434 0
-429 0
-431 0
-426 0
-428 0
-423 0
-425 0
-420 0
-422 0
-417 0
-419 0
-414 0
-416 0
-411 0
-413 0
-408 0
-410 0
-405 0
-407 0
-402 0
-404 0
-399 0
-401 0
-396 0
-398 0
-393 0
-395 0
-390 0
-392 0
-387 0
-389 0
-384 0
-386 0
-381 0
-383 0
-378 0
-380 0
-375 0
-377 0
-372 0
-374 0
-369 0
-371 0
-366 0
-368 0
-363 0
-365 0
-360 0
-362 0
-357 0
-359 0
-354 0
-356 0
-351 0
-353 0
-348 0
-350 0
-345 0
-347 0
-342 0
-344 0
-339 0
-341 0
-336 0
-338 0
-333 0
-335 0
-330 0
-332 0
-327 0
-329 0
-324 0
-326 0
-321 0
-323 0
-318 0
-320 0
-315 0
-317 0
-312 0
-314 0
-309 0
-311 0
-306 0
-308 0
-303 0
-305 0
-300 0
-302 0
-297 0
-299 0
-294 0
-296 0
-291 0
-293 0
-288 0
-290 0
-285 0
-287 0
-282 0
-284 0
-279 0
-281 0
-276 0
-278 0
-273 0
-275 0
-270 0
-272 0
-267 0
-269 0
-260 0
-266 0
